NAME: ACTUAL_TOURS/amz1912
TYPE: TOUR
COMMENT: RouteID_cb1df975-e29b-4453-9179-e4e884e23dfd
DIMENSION: 169
TOUR_SECTION
51
148
90
68
3
72
167
64
141
116
159
54
165
130
107
108
48
5
1
156
49
9
23
50
145
109
143
79
138
140
52
45
134
21
34
103
120
78
149
25
56
47
93
139
22
122
84
15
126
80
85
13
2
74
7
86
150
111
57
135
113
75
44
28
29
125
31
157
17
26
16
41
115
97
162
118
83
92
36
14
100
102
144
67
82
60
55
94
133
20
131
71
77
88
136
96
166
73
10
46
132
18
33
81
106
65
98
66
105
147
30
161
19
32
69
27
53
112
154
4
158
76
121
39
163
89
42
155
160
62
43
153
104
35
129
127
11
169
123
101
124
119
6
137
95
61
110
128
117
99
63
142
40
168
37
151
59
58
70
38
87
114
152
146
91
12
24
8
164
-1
EOF
